
<<< setup

Tried aggregator 1 time.
LP Presolve eliminated 104 rows and 64 columns.
Reduced LP has 4 rows, 28 columns, and 28 nonzeros.
Presolve time = 0.00 sec. (0.04 ticks)

Iteration log . . .
Iteration:     1   Dual objective     =          1671.703844
main returns 0

<<< main


<<< done

